c colouring generated by benchmark framework
p edge 450 8263
v 1 4
v 2 18
v 3 20
v 4 24
v 5 18
v 6 13
v 7 23
v 8 11
v 9 2
v 10 6
v 11 10
v 12 23
v 13 1
v 14 1
v 15 11
v 16 19
v 17 23
v 18 0
v 19 3
v 20 18
v 21 7
v 22 15
v 23 9
v 24 4
v 25 15
v 26 0
v 27 22
v 28 0
v 29 8
v 30 5
v 31 24
v 32 11
v 33 23
v 34 18
v 35 15
v 36 0
v 37 22
v 38 1
v 39 23
v 40 18
v 41 9
v 42 4
v 43 20
v 44 22
v 45 19
v 46 14
v 47 19
v 48 1
v 49 6
v 50 17
v 51 20
v 52 8
v 53 9
v 54 16
v 55 4
v 56 17
v 57 3
v 58 23
v 59 3
v 60 20
v 61 21
v 62 8
v 63 24
v 64 15
v 65 9
v 66 5
v 67 18
v 68 0
v 69 4
v 70 4
v 71 9
v 72 16
v 73 4
v 74 14
v 75 22
v 76 19
v 77 22
v 78 5
v 79 0
v 80 24
v 81 1
v 82 2
v 83 3
v 84 12
v 85 9
v 86 24
v 87 24
v 88 2
v 89 0
v 90 15
v 91 20
v 92 3
v 93 6
v 94 7
v 95 15
v 96 0
v 97 7
v 98 4
v 99 7
v 100 3
v 101 11
v 102 2
v 103 19
v 104 19
v 105 0
v 106 24
v 107 4
v 108 5
v 109 0
v 110 21
v 111 4
v 112 9
v 113 1
v 114 13
v 115 1
v 116 7
v 117 0
v 118 13
v 119 15
v 120 11
v 121 7
v 122 16
v 123 10
v 124 8
v 125 3
v 126 5
v 127 12
v 128 20
v 129 13
v 130 10
v 131 21
v 132 2
v 133 7
v 134 4
v 135 12
v 136 7
v 137 22
v 138 22
v 139 14
v 140 5
v 141 9
v 142 16
v 143 0
v 144 7
v 145 0
v 146 24
v 147 24
v 148 10
v 149 23
v 150 9
v 151 2
v 152 19
v 153 6
v 154 2
v 155 3
v 156 12
v 157 15
v 158 11
v 159 16
v 160 12
v 161 7
v 162 21
v 163 4
v 164 1
v 165 10
v 166 13
v 167 12
v 168 6
v 169 6
v 170 3
v 171 2
v 172 19
v 173 19
v 174 14
v 175 19
v 176 17
v 177 19
v 178 1
v 179 3
v 180 2
v 181 17
v 182 10
v 183 6
v 184 10
v 185 12
v 186 4
v 187 4
v 188 14
v 189 21
v 190 6
v 191 20
v 192 1
v 193 1
v 194 17
v 195 5
v 196 8
v 197 22
v 198 1
v 199 14
v 200 8
v 201 6
v 202 20
v 203 17
v 204 3
v 205 22
v 206 4
v 207 5
v 208 20
v 209 23
v 210 3
v 211 5
v 212 0
v 213 1
v 214 20
v 215 5
v 216 12
v 217 10
v 218 5
v 219 14
v 220 11
v 221 18
v 222 5
v 223 23
v 224 22
v 225 11
v 226 24
v 227 1
v 228 24
v 229 9
v 230 22
v 231 14
v 232 0
v 233 16
v 234 7
v 235 4
v 236 10
v 237 1
v 238 8
v 239 17
v 240 21
v 241 15
v 242 2
v 243 1
v 244 22
v 245 6
v 246 16
v 247 9
v 248 9
v 249 11
v 250 1
v 251 14
v 252 20
v 253 6
v 254 10
v 255 18
v 256 7
v 257 21
v 258 17
v 259 16
v 260 20
v 261 0
v 262 10
v 263 19
v 264 12
v 265 8
v 266 11
v 267 22
v 268 18
v 269 1
v 270 14
v 271 13
v 272 4
v 273 24
v 274 16
v 275 9
v 276 1
v 277 21
v 278 10
v 279 23
v 280 19
v 281 13
v 282 11
v 283 4
v 284 20
v 285 0
v 286 6
v 287 5
v 288 20
v 289 22
v 290 18
v 291 7
v 292 10
v 293 3
v 294 19
v 295 8
v 296 13
v 297 3
v 298 17
v 299 14
v 300 23
v 301 0
v 302 14
v 303 23
v 304 6
v 305 5
v 306 4
v 307 21
v 308 7
v 309 16
v 310 7
v 311 8
v 312 13
v 313 15
v 314 14
v 315 19
v 316 5
v 317 12
v 318 13
v 319 1
v 320 7
v 321 8
v 322 3
v 323 3
v 324 2
v 325 20
v 326 3
v 327 12
v 328 9
v 329 0
v 330 10
v 331 13
v 332 1
v 333 9
v 334 15
v 335 10
v 336 12
v 337 17
v 338 2
v 339 15
v 340 11
v 341 24
v 342 0
v 343 13
v 344 21
v 345 18
v 346 13
v 347 10
v 348 10
v 349 2
v 350 17
v 351 15
v 352 15
v 353 10
v 354 9
v 355 23
v 356 24
v 357 4
v 358 8
v 359 17
v 360 13
v 361 17
v 362 8
v 363 0
v 364 20
v 365 16
v 366 0
v 367 14
v 368 0
v 369 11
v 370 6
v 371 18
v 372 5
v 373 6
v 374 8
v 375 20
v 376 1
v 377 16
v 378 9
v 379 0
v 380 17
v 381 11
v 382 16
v 383 0
v 384 16
v 385 15
v 386 14
v 387 0
v 388 4
v 389 21
v 390 1
v 391 23
v 392 15
v 393 11
v 394 10
v 395 4
v 396 20
v 397 11
v 398 23
v 399 8
v 400 12
v 401 7
v 402 5
v 403 15
v 404 17
v 405 12
v 406 0
v 407 3
v 408 4
v 409 2
v 410 24
v 411 6
v 412 2
v 413 12
v 414 1
v 415 1
v 416 7
v 417 1
v 418 24
v 419 14
v 420 16
v 421 11
v 422 3
v 423 24
v 424 9
v 425 19
v 426 4
v 427 8
v 428 11
v 429 6
v 430 2
v 431 14
v 432 2
v 433 7
v 434 1
v 435 12
v 436 0
v 437 2
v 438 19
v 439 6
v 440 15
v 441 19
v 442 12
v 443 21
v 444 21
v 445 4
v 446 19
v 447 23
v 448 6
v 449 20
v 450 20
